100
100
3000 3000 3000 3000 3000 3000 3000 3000 3000 3000 3000 3000 3000 3000 3000 3000 3000 3000 3000 3000 3000 3000 3000 3000 3000 3000 3000 3000 3000 3000 3000 3000 3000 3000 3000 3000 3000 3000 3000 3000 3000 3000 3000 3000 3000 3000 3000 3000 3000 3000 3000 3000 3000 3000 3000 3000 3000 3000 3000 3000 3000 3000 3000 3000 3000 3000 3000 3000 3000 3000 3000 3000 3000 3000 3000 3000 3000 3000 3000 3000 3000 3000 3000 3000 3000 3000 3000 3000 3000 3000 3000 3000 3000 3000 3000 3000 3000 3000 3000 3000
0 1 1
0 9 2
0 35 0
0 54 2
0 59 0
0 74 0
1 3 1
1 4 2
1 6 1
1 9 3
1 16 2
1 64 3
1 68 4
1 69 1
1 71 0
2 3 0
2 19 0
2 26 0
2 36 0
2 37 0
2 49 4
2 57 0
2 62 1
2 75 4
2 84 2
3 17 4
3 75 2
4 4 2
4 8 0
4 30 3
4 34 1
4 42 4
4 72 3
4 77 2
4 89 0
5 2 1
5 9 3
5 30 2
5 37 2
5 38 3
5 43 1
5 45 2
5 66 3
5 81 1
5 91 1
5 93 1
6 2 1
6 8 3
6 18 3
6 29 2
6 50 4
6 51 3
6 52 4
6 56 0
6 77 1
6 80 2
6 93 2
6 98 0
7 3 4
7 6 1
7 7 3
7 9 2
7 22 1
7 29 3
7 31 1
7 36 2
7 40 0
7 50 4
7 64 0
7 69 4
7 90 1
7 95 3
8 1 0
8 11 0
8 17 0
8 25 3
8 26 4
8 27 3
8 28 4
8 49 1
8 59 3
8 66 3
8 67 3
8 68 3
8 72 1
8 73 0
8 77 0
8 83 0
9 4 3
9 23 2
9 25 1
9 36 3
9 45 2
9 50 3
9 58 1
9 65 3
9 70 4
9 94 1
9 96 2
9 98 1
10 1 1
10 10 1
10 16 2
10 48 4
10 55 3
10 70 0
10 74 0
10 78 1
10 79 1
10 88 0
10 90 3
11 8 4
11 32 3
11 52 2
11 69 4
12 5 0
12 6 0
12 13 0
12 16 2
12 25 4
12 26 1
12 29 1
12 35 2
12 53 4
12 55 4
12 77 1
12 86 3
12 95 4
13 8 1
13 12 0
13 24 2
13 25 1
13 36 4
13 42 1
13 47 0
13 58 4
13 63 1
13 65 3
13 68 2
14 25 0
14 37 1
14 38 3
14 49 4
14 65 3
14 72 2
15 16 4
15 20 1
15 40 3
15 60 0
15 68 2
15 71 2
15 75 4
15 78 1
15 79 0
15 98 3
16 2 0
16 6 0
16 15 4
16 33 2
16 45 1
16 51 1
16 65 1
16 93 3
16 97 4
17 7 4
17 28 2
17 48 0
17 57 4
17 71 1
17 72 3
17 76 2
17 78 3
17 84 1
17 91 1
18 1 3
18 14 4
18 26 1
18 52 0
18 89 1
18 90 4
19 3 0
19 6 4
19 12 2
19 19 3
19 27 1
19 33 2
19 35 1
19 40 2
19 62 2
19 64 4
19 65 1
19 91 0
20 6 3
20 9 1
20 13 3
20 16 3
20 19 1
20 30 4
20 31 1
20 59 2
20 77 0
20 92 2
21 1 1
21 7 3
21 41 2
21 47 0
21 56 3
21 76 1
21 80 0
21 84 0
21 85 3
22 0 1
22 19 4
22 28 3
22 37 4
22 42 4
22 43 3
22 53 0
22 67 1
22 69 2
22 82 1
23 10 1
23 31 2
23 69 4
23 80 4
23 82 1
24 3 4
24 15 3
24 23 4
24 25 0
24 31 4
24 32 3
24 48 1
24 49 1
24 53 4
24 62 2
24 89 3
24 94 3
24 96 2
25 3 1
25 22 0
25 26 2
25 29 4
25 38 4
25 47 3
25 51 3
25 84 2
25 87 4
26 0 1
26 8 3
26 20 4
26 24 2
26 55 1
26 70 0
26 72 2
26 95 0
27 5 2
27 7 1
27 10 2
27 25 2
27 30 0
27 38 2
27 39 1
27 44 0
27 46 1
27 52 3
27 64 1
27 71 3
27 76 4
27 88 3
27 96 0
27 98 0
28 18 0
28 20 1
28 21 0
28 28 4
28 33 0
28 41 1
28 46 4
28 47 1
28 56 0
28 61 1
28 76 2
28 84 0
28 88 1
28 92 2
28 95 4
29 4 4
29 5 3
29 9 4
29 11 2
29 14 4
29 18 0
29 50 2
29 63 2
29 70 2
29 71 4
29 73 3
29 82 4
30 8 4
30 15 0
30 21 0
30 35 1
30 45 2
30 56 4
30 61 4
30 63 0
30 67 3
30 74 0
30 78 1
30 83 2
30 87 4
30 91 0
31 2 4
31 5 3
31 7 4
31 12 3
31 17 0
31 34 1
31 50 3
31 52 4
31 62 4
31 80 4
31 82 0
31 85 0
31 86 1
31 96 0
32 4 2
32 11 4
32 22 1
32 31 2
32 43 4
32 70 3
32 85 2
32 95 1
33 0 3
33 7 0
33 14 3
33 18 1
33 22 3
33 54 1
33 82 2
34 6 4
34 15 2
34 18 4
34 28 1
34 32 3
34 33 2
34 37 4
34 58 1
34 64 4
34 73 1
34 74 2
34 92 4
35 0 0
35 34 3
35 35 0
35 66 0
35 67 0
35 68 3
35 70 4
35 83 2
35 86 2
36 8 3
36 13 1
36 16 3
36 24 3
36 42 0
36 45 1
36 48 2
36 49 4
36 53 4
36 63 0
36 72 3
36 73 3
36 76 3
36 87 4
36 89 2
36 90 4
36 96 4
37 14 3
37 25 4
37 27 4
37 28 1
37 33 2
37 67 3
37 69 4
37 83 2
37 89 1
37 93 1
37 99 0
38 11 1
38 15 1
38 21 4
38 24 1
38 47 0
38 54 4
38 57 3
38 71 2
38 94 2
39 3 1
39 4 2
39 38 0
39 39 4
39 46 0
39 51 3
39 57 4
39 61 2
39 74 3
39 78 4
39 83 4
40 12 3
40 15 4
40 31 2
40 54 0
40 56 2
40 82 0
41 4 0
41 12 2
41 44 2
41 46 2
41 86 4
41 97 1
42 2 4
42 8 4
42 27 3
42 43 0
42 45 0
42 56 1
42 58 4
42 91 3
42 92 4
42 99 2
43 2 2
43 14 3
43 34 3
43 59 0
43 60 1
43 83 0
43 90 2
44 6 4
44 9 3
44 17 3
44 22 2
44 40 2
44 42 4
44 49 1
45 19 4
45 60 4
45 62 4
45 65 1
45 67 1
46 23 3
46 28 4
46 29 0
46 38 4
46 44 3
46 51 3
46 59 3
46 66 3
46 78 3
46 93 4
46 94 2
46 98 2
47 12 4
47 15 0
47 23 4
47 37 2
47 39 4
47 42 2
47 44 1
47 57 3
47 66 3
47 84 3
47 87 2
47 96 1
47 97 2
48 3 4
48 11 2
48 13 0
48 57 1
48 87 2
48 92 3
48 99 2
49 19 4
49 23 0
49 39 0
49 55 1
49 73 3
49 79 2
49 80 0
49 91 3
49 94 2
50 11 4
50 19 1
50 35 1
50 37 0
50 46 1
50 51 1
50 53 4
50 62 2
50 77 1
50 79 4
50 82 0
50 84 4
50 98 1
51 15 4
51 24 1
51 29 2
51 34 4
51 38 1
51 53 4
51 56 4
51 64 1
51 70 0
51 80 3
51 83 2
51 97 2
52 1 1
52 5 3
52 6 4
52 17 1
52 24 0
52 26 2
52 40 3
52 50 2
52 53 1
52 57 2
52 68 4
52 79 0
52 92 2
52 93 2
52 94 0
53 0 3
53 14 4
53 16 0
53 36 2
53 37 3
53 42 2
53 44 4
53 47 2
53 71 3
53 72 1
53 75 4
53 81 2
53 97 2
54 1 1
54 33 4
54 34 2
54 38 2
54 46 1
54 50 3
54 57 2
54 78 1
54 87 0
55 13 1
55 24 2
55 30 2
55 47 3
55 52 2
55 85 3
55 86 2
56 19 3
56 22 4
56 31 3
56 35 0
56 39 0
56 41 2
56 75 2
56 93 1
57 50 4
57 60 0
57 64 3
57 67 0
57 91 1
58 12 4
58 14 0
58 22 2
58 27 3
58 37 2
58 40 4
58 44 3
58 61 0
58 69 3
58 73 3
58 78 3
58 95 0
59 20 2
59 32 4
59 48 3
59 62 2
59 63 0
59 65 0
59 92 1
60 13 4
60 32 2
60 50 1
60 55 4
60 56 0
60 73 0
60 76 3
60 82 1
60 98 1
61 7 0
61 21 2
61 23 2
61 51 2
61 63 4
61 70 0
61 76 0
61 81 2
61 84 4
61 85 1
61 89 4
61 90 4
61 92 4
62 10 4
62 22 1
62 24 4
62 27 0
62 47 2
62 53 0
62 61 0
62 63 3
62 76 4
62 79 2
62 95 4
62 99 2
63 10 0
63 25 3
63 32 4
63 35 1
63 40 2
63 41 3
63 42 1
63 55 2
63 77 0
63 82 2
63 88 3
64 0 0
64 3 4
64 6 3
64 19 4
64 21 1
64 27 0
64 28 2
64 35 2
64 43 3
64 78 1
64 81 1
64 85 3
65 30 2
65 32 2
65 33 3
65 55 0
65 60 0
65 61 4
65 86 4
65 87 3
65 90 1
66 5 3
66 36 4
66 37 2
66 41 2
66 43 3
66 58 2
66 64 4
66 69 0
66 73 4
67 10 1
67 27 3
67 30 2
67 34 1
67 45 0
67 58 4
67 70 1
67 72 2
67 73 0
67 76 0
67 77 0
67 85 2
67 88 0
68 7 1
68 10 0
68 12 2
68 15 1
68 18 1
68 51 4
68 63 0
69 38 3
69 74 3
69 75 3
69 86 1
69 87 4
69 90 3
69 92 1
70 4 3
70 5 4
70 34 1
70 48 3
70 51 3
70 55 3
70 56 2
70 58 1
70 59 2
70 65 4
70 74 3
70 89 0
70 93 2
70 98 2
71 0 0
71 8 4
71 9 0
71 14 0
71 17 3
71 30 3
71 39 3
71 47 2
71 61 2
71 92 2
72 9 1
72 11 1
72 21 0
72 27 2
72 41 4
72 42 0
72 46 0
72 61 4
72 75 0
72 80 0
72 85 4
73 11 2
73 17 4
73 22 0
73 26 0
73 32 3
73 40 0
73 44 2
73 45 1
73 54 4
73 59 3
73 74 0
73 98 3
73 99 0
74 34 3
74 61 0
74 74 1
74 79 0
75 2 2
75 10 0
75 12 1
75 43 1
75 46 1
75 64 4
75 83 2
75 87 1
76 13 2
76 23 1
76 57 1
76 75 2
76 81 2
76 91 3
77 2 2
77 4 1
77 18 1
77 35 2
77 36 2
77 48 4
77 54 1
77 67 3
77 72 2
77 78 4
77 81 1
77 84 2
77 89 0
77 93 3
78 7 0
78 29 3
78 41 2
78 49 2
78 51 4
78 77 2
78 95 3
79 7 0
79 16 4
79 34 3
79 41 1
79 68 0
79 75 1
79 86 3
80 3 4
80 11 2
80 12 1
80 38 3
80 39 2
80 49 4
80 54 4
80 77 1
80 83 0
80 88 1
81 2 0
81 10 1
81 17 2
81 28 2
81 52 0
81 53 0
81 62 1
81 66 4
81 69 3
81 88 1
81 94 2
81 99 3
82 39 2
82 49 0
82 67 0
82 68 3
82 86 3
82 95 4
83 0 3
83 5 0
83 33 3
83 43 2
83 44 0
83 50 0
83 60 2
83 69 1
83 85 1
83 88 2
84 31 3
84 41 0
84 54 3
84 55 1
84 65 2
85 5 1
85 21 1
85 23 3
85 30 2
85 42 2
85 54 3
85 81 1
85 84 1
85 94 1
85 96 3
85 99 4
86 4 4
86 14 3
86 17 4
86 18 1
86 20 2
86 26 3
86 41 1
86 44 4
86 48 0
86 52 0
86 60 2
86 61 0
86 66 4
86 71 4
86 72 3
86 86 0
86 89 1
86 97 3
86 99 2
87 9 4
87 14 2
87 20 4
87 55 4
87 59 4
87 85 4
87 94 0
88 20 4
88 21 4
88 26 4
88 27 1
88 39 0
88 43 0
88 60 0
88 79 2
88 80 3
88 90 3
88 91 1
89 0 1
89 23 4
89 30 0
89 31 4
89 33 2
89 44 2
89 45 1
89 46 1
89 54 4
89 56 2
89 57 4
89 58 3
89 59 0
89 65 4
89 66 3
89 68 3
89 81 0
89 94 2
89 95 0
89 96 3
89 97 2
90 15 4
90 16 3
90 24 1
90 29 0
90 36 0
90 46 3
90 58 1
90 59 4
90 66 2
90 80 0
91 2 4
91 11 4
91 24 4
91 48 4
91 58 2
91 71 2
91 79 1
91 82 3
91 87 4
91 97 3
92 10 4
92 21 3
92 28 4
92 52 1
92 80 4
92 90 2
93 0 3
93 1 0
93 19 3
93 20 1
93 29 2
93 63 0
93 64 3
93 71 2
93 74 2
93 79 3
93 81 1
93 83 0
93 91 0
94 1 4
94 8 4
94 13 2
94 26 4
94 29 1
94 32 2
94 36 4
94 39 2
94 93 0
94 99 4
95 16 1
95 18 4
95 23 1
95 40 4
95 47 2
95 48 2
95 52 1
95 66 3
95 89 2
95 97 0
95 99 2
96 13 2
96 17 4
96 22 1
96 49 4
96 60 0
96 62 2
96 68 1
96 75 0
96 81 2
97 18 3
97 20 0
97 25 0
97 45 4
97 96 0
98 1 4
98 5 3
98 13 4
98 20 0
98 21 1
98 31 4
98 32 1
98 40 2
98 43 3
98 62 2
98 67 2
98 70 3
98 76 2
98 88 2
98 97 2
99 33 0
99 36 0
99 53 2
99 60 1
99 63 1
99 73 3
99 88 2
99 96 4
99 98 2
